c Output_time 26.03.2020 18:13:09_+0100 1585242789186286060
c ** Program information **
c program_name                          "QBRG_debug"
c version                               "0.3.20"
c date                                  "25.3.2020"
c gid_id                                "673970833836058123f633335630c185360d632e"
c author                                "Oliver Kullmann"
c url                                   "https://github.com/OKullmann/oklibrary/blob/master/Satisfiability/Transformers/Generators/Random/QBRG.cpp"
c ** Machine information **
c machine_name                          "chyna-Lenovo-G50-70"
c bogomips                              3791.08
c ** Compilation information **
c compiler_version                      "g++ 7.5.0"
c compilation_date                      "Mar_26_2020 11:16:30"
c compilation_options                   "--std=c++17 -pedantic -fmax-errors=5 -Wall -Wextra -g -D_GLIBCXX_DEBUG"
c NDEBUG                                0
c OPTIMIZE                              0
c ** Parameters **
c command-line                          "./QBRG_debug" "e40 a40 40" "105*1,1|2-2,1|3-3,1" "" "1,t" ""
c output                                "QuBlRaGe_120_105_1585242789186002998.qdimacs"
c options                               "filtered,renamed"
c num_quantifier_blocks                 3
c  quantifier_blocks                    1:e1-40 2:a41-80 3:e81-120
c num_clause-blocks                     1
c  clause-blocks                        105 * {1-40,1,1/2} | {41-80,1,1/2} | {81-120,1,1/2}
c num_e-seeds                           30+2=32
c  e-seeds                              1 0 1 0 4 120 2 40 1 40 0 40 1 105 3 1 1 1 1 2 2 2 1 1 2 3 3 1 1 2 1 1585242789186002615
p cnf 114 105
e 1 2 3 4 5 6 7 8 9 10 11 12 13 14 15 16 17 18 19 20 21 22 23 24 25 26 27 28 29 30 31 32 33 34 35 36 37 38 0
a 39 40 41 42 43 44 45 46 47 48 49 50 51 52 53 54 55 56 57 58 59 60 61 62 63 64 65 66 67 68 69 70 71 72 73 74 75 76 77 0
e 78 79 80 81 82 83 84 85 86 87 88 89 90 91 92 93 94 95 96 97 98 99 100 101 102 103 104 105 106 107 108 109 110 111 112 113 114 0
-21 -58 -78 0
-10 67 78 0
19 41 -79 0
-36 -43 -79 0
-3 55 -79 0
-21 -41 79 0
-36 41 80 0
19 -56 -81 0
-8 -64 -81 0
9 -74 -81 0
-2 75 -81 0
2 -45 -82 0
-35 -55 82 0
1 -42 -83 0
16 44 -83 0
-21 -74 -83 0
-9 -40 83 0
-3 -43 -84 0
30 42 84 0
7 -57 84 0
4 -75 84 0
-16 44 -85 0
37 74 -85 0
8 61 85 0
11 -57 -86 0
6 63 -86 0
30 -66 -87 0
-3 -74 -87 0
14 62 87 0
-29 40 88 0
-28 55 88 0
9 54 -89 0
7 77 -89 0
-19 50 -90 0
24 -48 90 0
-11 -60 90 0
-24 39 -91 0
-15 -42 -91 0
-30 62 -91 0
-38 -59 91 0
-23 56 -92 0
11 51 92 0
-24 45 -93 0
9 -64 -93 0
-38 -46 93 0
-20 56 94 0
-26 70 94 0
-20 -74 -95 0
-7 -60 95 0
16 -65 -96 0
3 66 -96 0
-18 54 96 0
13 -55 96 0
-31 44 -97 0
23 -53 -97 0
-15 56 -97 0
21 -49 97 0
-14 55 97 0
16 -71 97 0
3 73 97 0
-6 63 98 0
21 -46 -99 0
32 -39 100 0
-13 -56 101 0
-4 -40 -102 0
-27 -53 -102 0
3 58 -102 0
-5 50 102 0
1 -68 102 0
2 42 -103 0
-17 -58 103 0
30 -59 -104 0
-38 -49 104 0
6 50 104 0
-7 -71 104 0
-31 52 -105 0
-12 47 105 0
17 -55 105 0
-13 65 105 0
-32 40 -106 0
30 61 -106 0
-28 71 -106 0
18 -72 -106 0
27 49 -107 0
22 -60 -107 0
17 -77 -107 0
33 50 107 0
23 -65 107 0
7 -69 -108 0
25 76 -108 0
-14 69 108 0
-25 71 108 0
35 57 109 0
5 39 -110 0
4 52 110 0
-22 -42 -111 0
34 -45 -111 0
8 -47 -111 0
-32 -50 -111 0
-13 -52 -111 0
27 -47 111 0
22 40 -112 0
-31 56 113 0
12 -39 -114 0
35 -75 -114 0
